letting n_nurses=25
letting n_days=7
letting n_shift_types=4
letting max_covers=13
letting t_covers=87
letting covers=[8,0,5,0,8,9,0,0,8,9,0,0,1,0,0,0,13,4,2,0,1,4,1,0,5,9,0,0]
letting prefes=[4,2,2,1,4,4,2,2,2,4,1,2,4,4,2,2,2,4,1,2,4,2,2,1,4,4,2,2,4,2,2,2,4,1,2,2,1,3,2,2,4,1,2,2,1,3,2,2,4,2,2,2,4,1,2,2,4,1,2,2,1,4,2,2,2,4,2,2,1,4,2,2,2,4,2,2,4,1,2,2,1,4,2,2,4,2,1,2,4,4,1,4,2,3,2,1,4,4,1,4,2,3,2,1,4,2,1,2,4,4,1,4,4,2,2,1,1,4,2,2,2,4,1,2,1,4,2,2,2,4,1,2,4,2,2,1,1,4,2,2,1,2,2,2,4,4,2,2,2,4,2,2,4,4,2,2,2,4,2,2,1,2,2,2,4,4,2,2,4,2,2,2,4,1,2,2,2,4,2,2,4,1,2,2,2,4,2,2,4,2,2,2,4,1,2,2,4,1,2,2,4,4,2,4,2,4,2,2,4,4,2,4,2,4,2,2,4,1,2,2,4,4,2,4,4,2,2,2,4,4,2,4,1,4,2,2,4,4,2,4,1,4,2,2,4,2,2,2,4,4,2,4,4,2,2,2,1,4,2,2,2,3,2,1,1,4,2,2,2,3,2,1,4,2,2,2,1,4,2,2,4,2,2,1,4,4,2,2,2,4,1,2,4,4,2,2,2,4,1,2,4,2,2,1,4,4,2,2,4,2,2,2,4,4,2,4,1,3,2,1,4,4,2,4,1,3,2,1,4,2,2,2,4,4,2,4,1,2,2,2,4,4,1,2,2,4,2,2,4,4,1,2,2,4,2,2,1,2,2,2,4,4,1,2,4,2,2,1,4,4,2,2,2,3,1,2,4,4,2,2,2,3,1,2,4,2,2,1,4,4,2,2,1,2,1,2,4,1,2,2,2,4,2,2,4,1,2,2,2,4,2,2,1,2,1,2,4,1,2,2,4,2,1,2,4,4,1,2,2,4,2,2,4,4,1,2,2,4,2,2,4,2,1,2,4,4,1,2,4,1,1,2,1,4,2,2,1,4,2,1,1,4,2,2,1,4,2,1,4,1,1,2,1,4,2,2,4,1,2,2,4,1,1,2,2,4,2,2,4,1,1,2,2,4,2,2,4,1,2,2,4,1,1,2,1,2,2,2,4,4,1,2,2,4,2,2,4,4,1,2,2,4,2,2,1,2,2,2,4,4,1,2,4,2,2,2,4,4,2,4,1,4,2,1,4,4,2,4,1,4,2,1,4,2,2,2,4,4,2,4,4,2,1,2,4,1,2,2,2,4,2,2,4,1,2,2,2,4,2,2,4,2,1,2,4,1,2,2,1,2,2,2,1,4,2,2,2,4,2,2,1,4,2,2,2,4,2,2,1,2,2,2,1,4,2,2,4,2,2,1,4,4,2,2,2,4,1,2,4,4,2,2,2,4,1,2,4,2,2,1,4,4,2,2,4,2,2,2,4,4,2,2,2,4,2,2,4,4,2,2,2,4,2,2,4,2,2,2,4,4,2,2,4,1,2,2,4,4,2,2,2,4,2,2,4,4,2,2,2,4,2,2,4,1,2,2,4,4,2,2]
letting ub =  358
